; ISZERO DUP2 ISZERO ISZERO EQ => ISZERO DUP2 ISZERO XOR
(set-option :produce-proofs true)
; 
(set-info :status unknown)
(declare-fun storage_t ((_ BitVec 256) (_ BitVec 256) Int (_ BitVec 256)) (_ BitVec 256))
(declare-fun storage_s ((_ BitVec 256) (_ BitVec 256) Int (_ BitVec 256)) (_ BitVec 256))
(declare-fun exc_halt_t (Int) Bool)
(declare-fun exc_halt_s (Int) Bool)
(declare-fun sc_t (Int) (_ BitVec 6))
(declare-fun stack_t ((_ BitVec 256) (_ BitVec 256) Int (_ BitVec 6)) (_ BitVec 256))
(declare-fun stack_s ((_ BitVec 256) (_ BitVec 256) Int (_ BitVec 6)) (_ BitVec 256))
(declare-fun sc_s (Int) (_ BitVec 6))
(declare-fun used_gas_t ((_ BitVec 256) (_ BitVec 256) Int) Int)
(declare-fun used_gas_s ((_ BitVec 256) (_ BitVec 256) Int) Int)
(assert
 (exists ((x_0 (_ BitVec 256)) (x_1 (_ BitVec 256)) )(let (($x10670 (forall ((w (_ BitVec 256)) )(let ((?x8509 (storage_t x_0 x_1 4 w)))
 (let ((?x4481 (storage_s x_0 x_1 5 w)))
 (= ?x4481 ?x8509))))
 ))
 (let (($x7854 (exc_halt_t 4)))
 (let (($x1862 (exc_halt_s 5)))
 (let (($x11605 (= $x1862 $x7854)))
 (let (($x8039 (forall ((n (_ BitVec 6)) )(let ((?x7495 (sc_t 4)))
 (let (($x6775 (bvsle ?x7495 n)))
 (let ((?x5186 (stack_t x_0 x_1 4 n)))
 (let ((?x11218 (stack_s x_0 x_1 5 n)))
 (let (($x5317 (= ?x11218 ?x5186)))
 (or $x5317 $x6775)))))))
 ))
 (let ((?x7495 (sc_t 4)))
 (let ((?x4319 (sc_s 5)))
 (let (($x11865 (= ?x4319 ?x7495)))
 (let ((?x7133 (used_gas_t x_0 x_1 0)))
 (let ((?x1147 (used_gas_s x_0 x_1 0)))
 (let (($x10149 (= ?x1147 ?x7133)))
 (let (($x6191 (forall ((w (_ BitVec 256)) )(let ((?x682 (storage_t x_0 x_1 0 w)))
 (let ((?x11755 (storage_s x_0 x_1 0 w)))
 (= ?x11755 ?x682))))
 ))
 (let (($x56 (exc_halt_t 0)))
 (let (($x57 (exc_halt_s 0)))
 (let (($x58 (= $x57 $x56)))
 (let (($x10231 (forall ((n (_ BitVec 6)) )(let ((?x63 (sc_t 0)))
 (let (($x6655 (bvsle ?x63 n)))
 (let ((?x6116 (stack_t x_0 x_1 0 n)))
 (let ((?x9777 (stack_s x_0 x_1 0 n)))
 (let (($x381 (= ?x9777 ?x6116)))
 (or $x381 $x6655)))))))
 ))
 (let ((?x63 (sc_t 0)))
 (let ((?x72 (sc_s 0)))
 (let (($x73 (= ?x72 ?x63)))
 (let (($x3948 (= $x7854 (or (exc_halt_t 3) (not (bvsle (_ bv0 6) (bvadd (_ bv62 6) (sc_t 3))))))))
 (let (($x10269 (forall ((w (_ BitVec 256)) )(let ((?x6978 (storage_t x_0 x_1 3 w)))
 (let ((?x8509 (storage_t x_0 x_1 4 w)))
 (= ?x8509 ?x6978))))
 ))
 (let (($x10651 (forall ((n (_ BitVec 6)) )(or (bvsle (bvadd (_ bv62 6) (sc_t 3)) n) (= (stack_t x_0 x_1 4 n) (stack_t x_0 x_1 3 n))))
 ))
 (let (($x7664 (= (used_gas_t x_0 x_1 4) (+ 3 (used_gas_t x_0 x_1 3)))))
 (let ((?x7878 (sc_t 3)))
 (let ((?x2884 (bvadd (_ bv63 6) ?x7878)))
 (let ((?x1678 (stack_t x_0 x_1 3 ?x2884)))
 (let (($x4938 (= (stack_t x_0 x_1 4 (bvadd (_ bv63 6) ?x7495)) (bvxor ?x1678 (stack_t x_0 x_1 3 (bvadd (_ bv62 6) ?x7878))))))
 (let (($x8164 (exc_halt_t 3)))
 (let (($x1871 (= $x8164 (or (exc_halt_t 2) (not (bvsle (_ bv0 6) (bvadd (_ bv63 6) (sc_t 2))))))))
 (let (($x10250 (forall ((w (_ BitVec 256)) )(let ((?x6629 (storage_t x_0 x_1 2 w)))
 (let ((?x6978 (storage_t x_0 x_1 3 w)))
 (= ?x6978 ?x6629))))
 ))
 (let (($x4228 (forall ((n (_ BitVec 6)) )(or (bvsle (bvadd (_ bv63 6) (sc_t 2)) n) (= (stack_t x_0 x_1 3 n) (stack_t x_0 x_1 2 n))))
 ))
 (let ((?x4896 (sc_t 2)))
 (let (($x7307 (= ?x7878 ?x4896)))
 (let ((?x8976 (used_gas_t x_0 x_1 3)))
 (let (($x55 (= ?x1678 (ite (= (stack_t x_0 x_1 2 (bvadd (_ bv63 6) ?x4896)) (_ bv0 256)) (_ bv1 256) (_ bv0 256)))))
 (let (($x7526 (exc_halt_t 1)))
 (let (($x6894 (not (bvsle (_ bv0 6) (bvadd (_ bv62 6) (sc_t 1))))))
 (let (($x2097 (not (= ((_ extract 6 6) (bvadd (_ bv1 7) (concat (_ bv0 1) (sc_t 1)))) (_ bv0 1)))))
 (let (($x9258 (exc_halt_t 2)))
 (let (($x148 (forall ((w (_ BitVec 256)) )(let ((?x1479 (storage_t x_0 x_1 1 w)))
 (let ((?x6629 (storage_t x_0 x_1 2 w)))
 (= ?x6629 ?x1479))))
 ))
 (let (($x825 (forall ((n (_ BitVec 6)) )(let ((?x1473 (sc_t 1)))
 (let ((?x7015 (bvadd (_ bv62 6) ?x1473)))
 (let (($x2705 (bvsle ?x7015 n)))
 (or (= (stack_t x_0 x_1 2 n) (stack_t x_0 x_1 1 n)) $x2705)))))
 ))
 (let (($x7662 (= ?x4896 (bvadd (_ bv1 6) (sc_t 1)))))
 (let ((?x1666 (used_gas_t x_0 x_1 2)))
 (let ((?x1473 (sc_t 1)))
 (let ((?x11928 (bvadd (_ bv63 6) ?x1473)))
 (let ((?x6156 (stack_t x_0 x_1 1 ?x11928)))
 (let ((?x7015 (bvadd (_ bv62 6) ?x1473)))
 (let ((?x2466 (stack_t x_0 x_1 1 ?x7015)))
 (let (($x3870 (forall ((w (_ BitVec 256)) )(let ((?x682 (storage_t x_0 x_1 0 w)))
 (let ((?x1479 (storage_t x_0 x_1 1 w)))
 (= ?x1479 ?x682))))
 ))
 (let (($x10282 (forall ((n (_ BitVec 6)) )(let ((?x63 (sc_t 0)))
 (let ((?x3284 (bvadd (_ bv63 6) ?x63)))
 (let (($x4409 (bvsle ?x3284 n)))
 (or $x4409 (= (stack_t x_0 x_1 1 n) (stack_t x_0 x_1 0 n)))))))
 ))
 (let (($x610 (= ?x1473 ?x63)))
 (let (($x9920 (= ?x6156 (ite (= (stack_t x_0 x_1 0 (bvadd (_ bv63 6) ?x63)) (_ bv0 256)) (_ bv1 256) (_ bv0 256)))))
 (let (($x269 (= $x1862 (or (exc_halt_s 4) (not (bvsle (_ bv0 6) (bvadd (_ bv62 6) (sc_s 4))))))))
 (let (($x7718 (forall ((w (_ BitVec 256)) )(let ((?x219 (storage_s x_0 x_1 4 w)))
 (let ((?x4481 (storage_s x_0 x_1 5 w)))
 (= ?x4481 ?x219))))
 ))
 (let (($x10262 (forall ((n (_ BitVec 6)) )(let ((?x9433 (sc_s 4)))
 (let ((?x11088 (bvadd (_ bv62 6) ?x9433)))
 (let (($x3294 (bvsle ?x11088 n)))
 (or (= (stack_s x_0 x_1 5 n) (stack_s x_0 x_1 4 n)) $x3294)))))
 ))
 (let ((?x9433 (sc_s 4)))
 (let ((?x10009 (bvadd (_ bv63 6) ?x9433)))
 (let (($x6737 (= ?x4319 ?x10009)))
 (let (($x4383 (= (used_gas_s x_0 x_1 5) (+ 3 (used_gas_s x_0 x_1 4)))))
 (let ((?x9767 (stack_s x_0 x_1 4 ?x10009)))
 (let (($x2140 (= (stack_s x_0 x_1 5 (bvadd (_ bv63 6) ?x4319)) (ite (= ?x9767 (stack_s x_0 x_1 4 (bvadd (_ bv62 6) ?x9433))) (_ bv1 256) (_ bv0 256)))))
 (let (($x9175 (exc_halt_s 4)))
 (let (($x10467 (= $x9175 (or (exc_halt_s 3) (not (bvsle (_ bv0 6) (bvadd (_ bv63 6) (sc_s 3))))))))
 (let (($x3596 (forall ((w (_ BitVec 256)) )(let ((?x7300 (storage_s x_0 x_1 3 w)))
 (let ((?x219 (storage_s x_0 x_1 4 w)))
 (= ?x219 ?x7300))))
 ))
 (let (($x1397 (forall ((n (_ BitVec 6)) )(let ((?x3851 (sc_s 3)))
 (let ((?x5352 (bvadd (_ bv63 6) ?x3851)))
 (let (($x2059 (bvsle ?x5352 n)))
 (or $x2059 (= (stack_s x_0 x_1 4 n) (stack_s x_0 x_1 3 n)))))))
 ))
 (let ((?x3851 (sc_s 3)))
 (let (($x5601 (= ?x9433 ?x3851)))
 (let ((?x7749 (used_gas_s x_0 x_1 4)))
 (let (($x8878 (= ?x9767 (ite (= (stack_s x_0 x_1 3 (bvadd (_ bv63 6) ?x3851)) (_ bv0 256)) (_ bv1 256) (_ bv0 256)))))
 (let (($x8103 (exc_halt_s 3)))
 (let (($x3550 (= $x8103 (or (exc_halt_s 2) (not (bvsle (_ bv0 6) (bvadd (_ bv63 6) (sc_s 2))))))))
 (let (($x9270 (forall ((w (_ BitVec 256)) )(let ((?x4557 (storage_s x_0 x_1 2 w)))
 (let ((?x7300 (storage_s x_0 x_1 3 w)))
 (= ?x7300 ?x4557))))
 ))
 (let (($x2866 (forall ((n (_ BitVec 6)) )(let ((?x2272 (sc_s 2)))
 (let ((?x8521 (bvadd (_ bv63 6) ?x2272)))
 (let (($x6414 (bvsle ?x8521 n)))
 (or $x6414 (= (stack_s x_0 x_1 3 n) (stack_s x_0 x_1 2 n)))))))
 ))
 (let ((?x2272 (sc_s 2)))
 (let (($x197 (= ?x3851 ?x2272)))
 (let ((?x10572 (used_gas_s x_0 x_1 3)))
 (let ((?x5352 (bvadd (_ bv63 6) ?x3851)))
 (let ((?x9285 (stack_s x_0 x_1 3 ?x5352)))
 (let (($x430 (= ?x9285 (ite (= (stack_s x_0 x_1 2 (bvadd (_ bv63 6) ?x2272)) (_ bv0 256)) (_ bv1 256) (_ bv0 256)))))
 (let (($x11866 (not (= ((_ extract 6 6) (bvadd (_ bv1 7) (concat (_ bv0 1) (sc_s 1)))) (_ bv0 1)))))
 (let (($x8780 (exc_halt_s 1)))
 (let (($x6277 (not (bvsle (_ bv0 6) (bvadd (_ bv62 6) (sc_s 1))))))
 (let (($x10052 (exc_halt_s 2)))
 (let (($x225 (forall ((w (_ BitVec 256)) )(let ((?x7 (storage_s x_0 x_1 1 w)))
 (let ((?x4557 (storage_s x_0 x_1 2 w)))
 (= ?x4557 ?x7))))
 ))
 (let (($x9718 (forall ((n (_ BitVec 6)) )(let ((?x154 (sc_s 1)))
 (let ((?x10884 (bvadd (_ bv62 6) ?x154)))
 (let (($x5886 (bvsle ?x10884 n)))
 (or (= (stack_s x_0 x_1 2 n) (stack_s x_0 x_1 1 n)) $x5886)))))
 ))
 (let (($x11836 (= ?x2272 (bvadd (_ bv1 6) (sc_s 1)))))
 (let ((?x10940 (used_gas_s x_0 x_1 2)))
 (let ((?x154 (sc_s 1)))
 (let ((?x11510 (bvadd (_ bv63 6) ?x154)))
 (let ((?x9945 (stack_s x_0 x_1 1 ?x11510)))
 (let ((?x10884 (bvadd (_ bv62 6) ?x154)))
 (let ((?x7481 (stack_s x_0 x_1 1 ?x10884)))
 (let (($x5163 (forall ((w (_ BitVec 256)) )(let ((?x11755 (storage_s x_0 x_1 0 w)))
 (let ((?x7 (storage_s x_0 x_1 1 w)))
 (= ?x7 ?x11755))))
 ))
 (let (($x9996 (forall ((n (_ BitVec 6)) )(let ((?x72 (sc_s 0)))
 (let ((?x1118 (bvadd (_ bv63 6) ?x72)))
 (let (($x5794 (bvsle ?x1118 n)))
 (or (= (stack_s x_0 x_1 1 n) (stack_s x_0 x_1 0 n)) $x5794)))))
 ))
 (let (($x1465 (= ?x154 ?x72)))
 (let (($x480 (= ?x9945 (ite (= (stack_s x_0 x_1 0 (bvadd (_ bv63 6) ?x72)) (_ bv0 256)) (_ bv1 256) (_ bv0 256)))))
 (let (($x10953 (forall ((w (_ BitVec 256)) )(let ((?x11755 (storage_s x_0 x_1 0 w)))
 (= ?x11755 (_ bv0 256))))
 ))
 (let (($x11735 (= ?x1147 0)))
 (let (($x7433 (not $x57)))
 (let (($x6066 (= (stack_s x_0 x_1 0 (_ bv1 6)) x_1)))
 (let (($x4377 (= (stack_s x_0 x_1 0 (_ bv0 6)) x_0)))
 (let (($x9617 (= ?x72 (_ bv2 6))))
 (and $x9617 $x4377 $x6066 $x7433 $x11735 $x10953 $x480 (= (used_gas_s x_0 x_1 1) (+ 3 ?x1147)) $x1465 $x9996 $x5163 (= $x8780 (or $x57 (not (bvsle (_ bv0 6) (bvadd (_ bv63 6) ?x72))))) (= (stack_s x_0 x_1 2 (bvadd (_ bv63 6) ?x2272)) ?x7481) (= (stack_s x_0 x_1 2 ?x10884) ?x7481) (= (stack_s x_0 x_1 2 ?x11510) ?x9945) (= ?x10940 (+ 3 (used_gas_s x_0 x_1 1))) $x11836 $x9718 $x225 (= $x10052 (or $x6277 $x8780 $x11866)) $x430 (= ?x10572 (+ 3 ?x10940)) $x197 $x2866 $x9270 $x3550 $x8878 (= ?x7749 (+ 3 ?x10572)) $x5601 $x1397 $x3596 $x10467 $x2140 $x4383 $x6737 $x10262 $x7718 $x269 $x9920 (= (used_gas_t x_0 x_1 1) (+ 3 ?x7133)) $x610 $x10282 $x3870 (= $x7526 (or $x56 (not (bvsle (_ bv0 6) (bvadd (_ bv63 6) ?x63))))) (= (stack_t x_0 x_1 2 (bvadd (_ bv63 6) ?x4896)) ?x2466) (= (stack_t x_0 x_1 2 ?x7015) ?x2466) (= (stack_t x_0 x_1 2 ?x11928) ?x6156) (= ?x1666 (+ 3 (used_gas_t x_0 x_1 1))) $x7662 $x825 $x148 (= $x9258 (or $x2097 $x6894 $x7526)) $x55 (= ?x8976 (+ 3 ?x1666)) $x7307 $x4228 $x10250 $x1871 $x4938 $x7664 (= ?x7495 ?x2884) $x10651 $x10269 $x3948 $x73 $x10231 $x58 $x6191 $x10149 (not (and $x11865 $x8039 $x11605 $x10670))))))))))))))))))))))))))))))))))))))))))))))))))))))))))))))))))))))))))))))))))))))))))))))))))))))))))
 )
(check-sat)
(get-proof)
